(declare-fun var0 () String)
(assert (RegexIn var0 (RegexConcat (RegexUnion (RegexPlus (Str2Reg "ccc")) (RegexPlus (Str2Reg "dd"))) (RegexConcat (RegexPlus (RegexUnion (Str2Reg "a") (Str2Reg "b"))) (RegexConcat (RegexPlus (RegexStar (Str2Reg "999"))) (RegexConcat (RegexUnion (RegexStar (Str2Reg "666")) (RegexUnion (Str2Reg "77") (Str2Reg "888"))) (RegexConcat (RegexUnion (RegexStar (Str2Reg "444")) (RegexStar (Str2Reg "55"))) (RegexConcat (RegexUnion (RegexPlus (Str2Reg "2")) (RegexPlus (Str2Reg "3"))) (RegexConcat (RegexPlus (RegexPlus (Str2Reg "1"))) (RegexConcat (RegexStar (RegexUnion (Str2Reg "~~~") (Str2Reg "0"))) (RegexConcat (RegexPlus (RegexUnion (Str2Reg "|||") (Str2Reg "}}"))) (RegexConcat (RegexUnion (RegexUnion (Str2Reg "___") (Str2Reg "`")) (RegexStar (Str2Reg "{"))) (RegexConcat (RegexUnion (RegexStar (Str2Reg "\\\\")) (RegexUnion (Str2Reg "]") (Str2Reg "^^^"))) (RegexConcat (RegexUnion (RegexUnion (Str2Reg "???") (Str2Reg "@@@")) (RegexPlus (Str2Reg "[[["))) (RegexConcat (RegexStar (RegexPlus (Str2Reg ">>"))) (RegexConcat (RegexStar (RegexUnion (Str2Reg "<") (Str2Reg "=="))) (RegexConcat (RegexPlus (RegexStar (Str2Reg ";"))) (RegexConcat (RegexUnion (RegexStar (Str2Reg "...")) (RegexUnion (Str2Reg "///") (Str2Reg ":::"))) (RegexConcat (RegexUnion (RegexPlus (Str2Reg ",,")) (RegexPlus (Str2Reg "-"))) (RegexConcat (RegexUnion (RegexUnion (Str2Reg "(") (Str2Reg ")))")) (RegexUnion (Str2Reg "*") (Str2Reg "+++"))) (RegexConcat (RegexPlus (RegexStar (Str2Reg "''"))) (RegexConcat (RegexStar (RegexUnion (Str2Reg "%") (Str2Reg "&&&"))) (RegexConcat (RegexPlus (RegexStar (Str2Reg "$"))) (RegexConcat (RegexPlus (RegexPlus (Str2Reg "###"))) (RegexConcat (RegexUnion (RegexStar (Str2Reg "Z")) (RegexUnion (Str2Reg "!!!") (Str2Reg "\""))) (RegexConcat (RegexUnion (RegexStar (Str2Reg "XXX")) (RegexPlus (Str2Reg "Y"))) (RegexConcat (RegexPlus (RegexUnion (Str2Reg "VVV") (Str2Reg "WWW"))) (RegexConcat (RegexUnion (RegexUnion (Str2Reg "S") (Str2Reg "T")) (RegexStar (Str2Reg "U"))) (RegexConcat (RegexPlus (RegexPlus (Str2Reg "R"))) (RegexConcat (RegexStar (RegexStar (Str2Reg "QQ"))) (RegexConcat (RegexStar (RegexStar (Str2Reg "PPP"))) (RegexConcat (RegexStar (RegexPlus (Str2Reg "OOO"))) (RegexConcat (RegexStar (RegexStar (Str2Reg "NNN"))) (RegexConcat (RegexPlus (RegexPlus (Str2Reg "MM"))) (RegexConcat (RegexUnion (RegexPlus (Str2Reg "KKK")) (RegexStar (Str2Reg "LLL"))) (RegexConcat (RegexUnion (RegexStar (Str2Reg "HH")) (RegexUnion (Str2Reg "I") (Str2Reg "J"))) (RegexConcat (RegexPlus (RegexUnion (Str2Reg "F") (Str2Reg "G"))) (RegexConcat (RegexStar (RegexStar (Str2Reg "EE"))) (RegexConcat (RegexUnion (RegexStar (Str2Reg "CCC")) (RegexStar (Str2Reg "D"))) (RegexConcat (RegexUnion (RegexStar (Str2Reg "z")) (RegexUnion (Str2Reg "AAA") (Str2Reg "BB"))) (RegexConcat (RegexUnion (RegexUnion (Str2Reg "vvv") (Str2Reg "w")) (RegexUnion (Str2Reg "x") (Str2Reg "y"))) (RegexConcat (RegexStar (RegexPlus (Str2Reg "u"))) (RegexConcat (RegexStar (RegexUnion (Str2Reg "sss") (Str2Reg "ttt"))) (RegexConcat (RegexPlus (RegexPlus (Str2Reg "r"))) (RegexConcat (RegexStar (RegexStar (Str2Reg "qq"))) (RegexConcat (RegexStar (RegexUnion (Str2Reg "ooo") (Str2Reg "pp"))) (RegexConcat (RegexStar (RegexPlus (Str2Reg "nn"))) (RegexConcat (RegexUnion (RegexStar (Str2Reg "l")) (RegexStar (Str2Reg "m"))) (RegexConcat (RegexStar (RegexStar (Str2Reg "kkk"))) (RegexConcat (RegexPlus (RegexPlus (Str2Reg "j"))) (RegexConcat (RegexUnion (RegexPlus (Str2Reg "h")) (RegexPlus (Str2Reg "iii"))) (RegexConcat (RegexUnion (RegexStar (Str2Reg "eee")) (RegexUnion (Str2Reg "f") (Str2Reg "g"))) (RegexConcat (RegexUnion (RegexStar (Str2Reg "ccc")) (RegexStar (Str2Reg "dd"))) (RegexConcat (RegexPlus (RegexPlus (Str2Reg "b"))) (RegexConcat (RegexPlus (RegexStar (Str2Reg "aaa"))) (RegexConcat (RegexUnion (RegexStar (Str2Reg "88")) (RegexPlus (Str2Reg "99"))) (RegexConcat (RegexUnion (RegexPlus (Str2Reg "55")) (RegexUnion (Str2Reg "66") (Str2Reg "777"))) (RegexConcat (RegexStar (RegexStar (Str2Reg "44"))) (RegexConcat (RegexStar (RegexPlus (Str2Reg "333"))) (RegexConcat (RegexUnion (RegexStar (Str2Reg "11")) (RegexStar (Str2Reg "22"))) (RegexConcat (RegexUnion (RegexPlus (Str2Reg "~")) (RegexStar (Str2Reg "0"))) (RegexConcat (RegexPlus (RegexStar (Str2Reg "}}}"))) (RegexConcat (RegexStar (RegexStar (Str2Reg "|||"))) (RegexConcat (RegexPlus (RegexStar (Str2Reg "{{"))) (RegexConcat (RegexPlus (RegexStar (Str2Reg "```"))) (RegexConcat (RegexPlus (RegexUnion (Str2Reg "^") (Str2Reg "__"))) (RegexConcat (RegexStar (RegexPlus (Str2Reg "]]]"))) (RegexConcat (RegexStar (RegexUnion (Str2Reg "[[") (Str2Reg "\\\\\\"))) (RegexConcat (RegexPlus (RegexPlus (Str2Reg "@@"))) (RegexConcat (RegexStar (RegexStar (Str2Reg "??"))) (RegexConcat (RegexUnion (RegexUnion (Str2Reg ";") (Str2Reg "<")) (RegexUnion (Str2Reg "==") (Str2Reg ">>"))) (RegexConcat (RegexStar (RegexStar (Str2Reg ":::"))) (RegexConcat (RegexPlus (RegexPlus (Str2Reg "///"))) (RegexConcat (RegexPlus (RegexUnion (Str2Reg "-") (Str2Reg "."))) (RegexConcat (RegexUnion (RegexStar (Str2Reg "+++")) (RegexStar (Str2Reg ",,,"))) (RegexConcat (RegexUnion (RegexPlus (Str2Reg "(")) (RegexUnion (Str2Reg ")))") (Str2Reg "***"))) (RegexConcat (RegexPlus (RegexUnion (Str2Reg "&&&") (Str2Reg "''"))) (RegexConcat (RegexUnion (RegexUnion (Str2Reg "#") (Str2Reg "$$$")) (RegexStar (Str2Reg "%"))) (RegexConcat (RegexStar (RegexStar (Str2Reg "\""))) (RegexConcat (RegexStar (RegexPlus (Str2Reg "!!!"))) (RegexConcat (RegexUnion (RegexStar (Str2Reg "YYY")) (RegexStar (Str2Reg "ZZ"))) (RegexConcat (RegexPlus (RegexUnion (Str2Reg "WWW") (Str2Reg "XX"))) (RegexConcat (RegexStar (RegexUnion (Str2Reg "UUU") (Str2Reg "VV"))) (RegexConcat (RegexPlus (RegexPlus (Str2Reg "T"))) (RegexConcat (RegexPlus (RegexUnion (Str2Reg "RRR") (Str2Reg "S"))) (RegexConcat (RegexPlus (RegexUnion (Str2Reg "PPP") (Str2Reg "Q"))) (RegexConcat (RegexStar (RegexUnion (Str2Reg "NNN") (Str2Reg "O"))) (RegexConcat (RegexUnion (RegexPlus (Str2Reg "KK")) (RegexUnion (Str2Reg "LLL") (Str2Reg "MM"))) (RegexConcat (RegexUnion (RegexPlus (Str2Reg "II")) (RegexPlus (Str2Reg "J"))) (RegexConcat (RegexUnion (RegexPlus (Str2Reg "GGG")) (RegexPlus (Str2Reg "H"))) (RegexConcat (RegexUnion (RegexUnion (Str2Reg "D") (Str2Reg "EEE")) (RegexPlus (Str2Reg "F"))) (RegexConcat (RegexPlus (RegexStar (Str2Reg "CCC"))) (RegexConcat (RegexPlus (RegexPlus (Str2Reg "B"))) (RegexConcat (RegexPlus (RegexPlus (Str2Reg "AAA"))) (RegexConcat (RegexUnion (RegexStar (Str2Reg "yy")) (RegexStar (Str2Reg "zzz"))) (RegexConcat (RegexUnion (RegexUnion (Str2Reg "uuu") (Str2Reg "vvv")) (RegexUnion (Str2Reg "ww") (Str2Reg "xxx"))) (RegexConcat (RegexUnion (RegexStar (Str2Reg "sss")) (RegexPlus (Str2Reg "tt"))) (RegexConcat (RegexStar (RegexStar (Str2Reg "r"))) (RegexConcat (RegexPlus (RegexStar (Str2Reg "q"))) (RegexConcat (RegexUnion (RegexStar (Str2Reg "o")) (RegexStar (Str2Reg "p"))) (RegexConcat (RegexStar (RegexStar (Str2Reg "n"))) (RegexConcat (RegexPlus (RegexStar (Str2Reg "mmm"))) (RegexConcat (RegexUnion (RegexPlus (Str2Reg "jj")) (RegexUnion (Str2Reg "k") (Str2Reg "l"))) (RegexConcat (RegexStar (RegexUnion (Str2Reg "hhh") (Str2Reg "ii"))) (RegexConcat (RegexPlus (RegexPlus (Str2Reg "g"))) (RegexConcat (RegexStar (RegexUnion (Str2Reg "eee") (Str2Reg "fff"))) (RegexConcat (RegexStar (RegexPlus (Str2Reg "dd"))) (RegexConcat (RegexPlus (RegexStar (Str2Reg "c"))) (RegexConcat (RegexPlus (RegexPlus (Str2Reg "bbb"))) (RegexConcat (RegexPlus (RegexPlus (Str2Reg "aa"))) (RegexConcat (RegexStar (RegexUnion (Str2Reg "888") (Str2Reg "999"))) (RegexConcat (RegexUnion (RegexPlus (Str2Reg "555")) (RegexUnion (Str2Reg "6") (Str2Reg "7"))) (RegexConcat (RegexPlus (RegexUnion (Str2Reg "33") (Str2Reg "444"))) (RegexConcat (RegexStar (RegexUnion (Str2Reg "1") (Str2Reg "22"))) (RegexStar (RegexStar (Str2Reg "000")))))))))))))))))))))))))))))))))))))))))))))))))))))))))))))))))))))))))))))))))))))))))))))))))))))))))))))))))))))
(check-sat)